Version identifier: 22.1.1.0 | 2022-11-28 | 9160aff4d
CPXPARAM_TimeLimit                               3600
Tried aggregator 1 time.
MIP Presolve eliminated 146 rows and 97 columns.
Reduced MIP has 5454 rows, 2514 columns, and 16262 nonzeros.
Reduced MIP has 2514 binaries, 0 generals, 0 SOSs, and 0 indicators.
Presolve time = 0.01 sec. (12.41 ticks)
Found incumbent of value 4163587.000000 after 0.01 sec. (15.11 ticks)
Probing time = 0.00 sec. (3.52 ticks)
Tried aggregator 1 time.
Detecting symmetries...
Reduced MIP has 5454 rows, 2514 columns, and 16262 nonzeros.
Reduced MIP has 2514 binaries, 0 generals, 0 SOSs, and 0 indicators.
Presolve time = 0.01 sec. (13.94 ticks)
Probing time = 0.01 sec. (3.52 ticks)
Clique table members: 2404.
MIP emphasis: balance optimality and feasibility.
MIP search method: dynamic search.
Parallel mode: deterministic, using up to 8 threads.
Root relaxation solution time = 0.01 sec. (10.52 ticks)

        Nodes                                         Cuts/
   Node  Left     Objective  IInf  Best Integer    Best Bound    ItCnt     Gap

*     0+    0                      4163587.0000        0.0000           100.00%
*     0+    0                      2432222.0000        0.0000           100.00%
*     0+    0                      2326590.0000        0.0000           100.00%
*     0+    0                      1795093.0000        0.0000           100.00%
      0     0    93774.0000   100  1795093.0000    93774.0000      158   94.78%
*     0+    0                       885688.0000    93774.0000            89.41%
      0     0   106217.5000   100   885688.0000     Cuts: 160      263   88.01%
*     0+    0                       137581.0000   106217.5000            22.80%
      0     0   118034.0000    86   137581.0000     Cuts: 172      401   14.21%
*     0+    0                       137060.0000   118034.0000            13.88%
Detecting symmetries...

Repeating presolve.
Tried aggregator 1 time.
MIP Presolve eliminated 4743 rows and 1944 columns.
MIP Presolve modified 491 coefficients.
Reduced MIP has 711 rows, 570 columns, and 2463 nonzeros.
Reduced MIP has 570 binaries, 0 generals, 0 SOSs, and 0 indicators.
Presolve time = 0.00 sec. (4.73 ticks)
Probing time = 0.00 sec. (0.57 ticks)
Tried aggregator 1 time.
Detecting symmetries...
Reduced MIP has 711 rows, 570 columns, and 2463 nonzeros.
Reduced MIP has 570 binaries, 0 generals, 0 SOSs, and 0 indicators.
Presolve time = 0.00 sec. (2.53 ticks)
Represolve time = 0.01 sec. (13.11 ticks)
Probing time = 0.00 sec. (0.57 ticks)
Clique table members: 626.
MIP emphasis: balance optimality and feasibility.
MIP search method: dynamic search.
Parallel mode: deterministic, using up to 8 threads.
Root relaxation solution time = 0.00 sec. (5.34 ticks)

        Nodes                                         Cuts/
   Node  Left     Objective  IInf  Best Integer    Best Bound    ItCnt     Gap

*     0+    0                       137060.0000   118034.0000            13.88%
      0     0   132281.5000    78   137060.0000   132281.5000      611    3.49%
      0     0   133769.2500   107   137060.0000      Cuts: 26      652    2.40%
      0     0   134081.2527   116   137060.0000      Cuts: 25      694    2.17%
Detecting symmetries...

Repeating presolve.
Tried aggregator 1 time.
MIP Presolve eliminated 293 rows and 235 columns.
MIP Presolve modified 42 coefficients.
Reduced MIP has 418 rows, 335 columns, and 1356 nonzeros.
Reduced MIP has 335 binaries, 0 generals, 0 SOSs, and 0 indicators.
Presolve time = 0.00 sec. (1.55 ticks)
Probing time = 0.00 sec. (0.26 ticks)
Tried aggregator 2 times.
MIP Presolve eliminated 14 rows and 8 columns.
Aggregator did 1 substitutions.
Reduced MIP has 403 rows, 326 columns, and 1321 nonzeros.
Reduced MIP has 326 binaries, 0 generals, 0 SOSs, and 0 indicators.
Presolve time = 0.00 sec. (1.57 ticks)
Probing time = 0.00 sec. (0.26 ticks)
Tried aggregator 1 time.
Detecting symmetries...
Reduced MIP has 403 rows, 326 columns, and 1321 nonzeros.
Reduced MIP has 326 binaries, 0 generals, 0 SOSs, and 0 indicators.
Presolve time = 0.00 sec. (1.26 ticks)
Represolve time = 0.01 sec. (7.74 ticks)
Probing time = 0.00 sec. (0.26 ticks)
Clique table members: 403.
MIP emphasis: balance optimality and feasibility.
MIP search method: dynamic search.
Parallel mode: deterministic, using up to 8 threads.
Root relaxation solution time = 0.01 sec. (6.78 ticks)

        Nodes                                         Cuts/
   Node  Left     Objective  IInf  Best Integer    Best Bound    ItCnt     Gap

*     0+    0                       137060.0000   134081.2527             2.17%
      0     0   134086.2439   114   137060.0000   134086.2439      997    2.17%
      0     0        cutoff         137060.0000   137060.0000     1043    0.00%
Elapsed time = 0.29 sec. (208.95 ticks, tree = 0.01 MB, solutions = 7)

Implied bound cuts applied:  131
Zero-half cuts applied:  41
Lift and project cuts applied:  19
Gomory fractional cuts applied:  2

Root node processing (before b&c):
  Real time             =    0.29 sec. (209.15 ticks)
Parallel b&c, 8 threads:
  Real time             =    0.00 sec. (0.00 ticks)
  Sync time (average)   =    0.00 sec.
  Wait time (average)   =    0.00 sec.
                          ------------
Total (root+branch&cut) =    0.29 sec. (209.15 ticks)
Status: Optimal
Obj: 137060

Instalacoes abertas:
Instalação 4 aberta
Instalação 9 aberta
Instalação 20 aberta
Instalação 22 aberta

Atribuições (cliente -> instalação):
Cliente 0 -> Instalação 9
Cliente 1 -> Instalação 9
Cliente 2 -> Instalação 9
Cliente 3 -> Instalação 20
Cliente 4 -> Instalação 4
Cliente 5 -> Instalação 9
Cliente 6 -> Instalação 9
Cliente 7 -> Instalação 20
Cliente 8 -> Instalação 4
Cliente 9 -> Instalação 9
Cliente 10 -> Instalação 20
Cliente 11 -> Instalação 20
Cliente 12 -> Instalação 20
Cliente 13 -> Instalação 9
Cliente 14 -> Instalação 9
Cliente 15 -> Instalação 9
Cliente 16 -> Instalação 20
Cliente 17 -> Instalação 20
Cliente 18 -> Instalação 20
Cliente 19 -> Instalação 9
Cliente 20 -> Instalação 20
Cliente 21 -> Instalação 9
Cliente 22 -> Instalação 22
Cliente 23 -> Instalação 9
Cliente 24 -> Instalação 9
Cliente 25 -> Instalação 20
Cliente 26 -> Instalação 9
Cliente 27 -> Instalação 20
Cliente 28 -> Instalação 9
Cliente 29 -> Instalação 4
Cliente 30 -> Instalação 20
Cliente 31 -> Instalação 4
Cliente 32 -> Instalação 4
Cliente 33 -> Instalação 9
Cliente 34 -> Instalação 4
Cliente 35 -> Instalação 9
Cliente 36 -> Instalação 20
Cliente 37 -> Instalação 20
Cliente 38 -> Instalação 4
Cliente 39 -> Instalação 20
Cliente 40 -> Instalação 4
Cliente 41 -> Instalação 20
Cliente 42 -> Instalação 4
Cliente 43 -> Instalação 9
Cliente 44 -> Instalação 9
Cliente 45 -> Instalação 4
Cliente 46 -> Instalação 4
Cliente 47 -> Instalação 9
Cliente 48 -> Instalação 4
Cliente 49 -> Instalação 9
